c strEdges: 189  randomEdges: 441 
c degrees:  2  3 
c girth: 10 max: 8.032766  
c Hgirth mixed MAXCUT instance
c generated from an undirected graph
c to solve unweighted MaxCut
p cnf 140 1260
126 84 0
-126 -84 0
126 58 0
-126 -58 0
7 129 0
-7 -129 0
7 59 0
-7 -59 0
7 120 0
-7 -120 0
131 108 0
-131 -108 0
131 130 0
-131 -130 0
131 133 0
-131 -133 0
138 39 0
-138 -39 0
138 118 0
-138 -118 0
138 124 0
-138 -124 0
105 133 0
-105 -133 0
105 56 0
-105 -56 0
105 31 0
-105 -31 0
1 70 0
-1 -70 0
1 10 0
-1 -10 0
1 89 0
-1 -89 0
107 43 0
-107 -43 0
107 30 0
-107 -30 0
44 140 0
-44 -140 0
44 46 0
-44 -46 0
51 97 0
-51 -97 0
51 12 0
-51 -12 0
51 121 0
-51 -121 0
64 85 0
-64 -85 0
64 66 0
-64 -66 0
64 36 0
-64 -36 0
45 25 0
-45 -25 0
45 65 0
-45 -65 0
45 93 0
-45 -93 0
52 12 0
-52 -12 0
52 8 0
-52 -8 0
5 32 0
-5 -32 0
5 103 0
-5 -103 0
80 120 0
-80 -120 0
80 101 0
-80 -101 0
80 90 0
-80 -90 0
35 109 0
-35 -109 0
35 135 0
-35 -135 0
99 28 0
-99 -28 0
99 14 0
-99 -14 0
114 132 0
-114 -132 0
114 140 0
-114 -140 0
114 6 0
-114 -6 0
18 73 0
-18 -73 0
18 139 0
-18 -139 0
18 135 0
-18 -135 0
68 103 0
-68 -103 0
68 14 0
-68 -14 0
79 34 0
-79 -34 0
79 70 0
-79 -70 0
134 65 0
-134 -65 0
134 49 0
-134 -49 0
134 75 0
-134 -75 0
19 116 0
-19 -116 0
19 67 0
-19 -67 0
19 112 0
-19 -112 0
20 104 0
-20 -104 0
20 103 0
-20 -103 0
20 83 0
-20 -83 0
55 46 0
-55 -46 0
55 39 0
-55 -39 0
2 139 0
-2 -139 0
2 76 0
-2 -76 0
2 122 0
-2 -122 0
61 66 0
-61 -66 0
61 31 0
-61 -31 0
61 93 0
-61 -93 0
82 59 0
-82 -59 0
82 73 0
-82 -73 0
78 27 0
-78 -27 0
78 132 0
-78 -132 0
78 12 0
-78 -12 0
47 130 0
-47 -130 0
47 63 0
-47 -63 0
47 32 0
-47 -32 0
57 90 0
-57 -90 0
57 100 0
-57 -100 0
57 41 0
-57 -41 0
4 8 0
-4 -8 0
4 83 0
-4 -83 0
4 109 0
-4 -109 0
17 10 0
-17 -10 0
17 111 0
-17 -111 0
17 53 0
-17 -53 0
21 67 0
-21 -67 0
21 74 0
-21 -74 0
21 90 0
-21 -90 0
119 122 0
-119 -122 0
119 117 0
-119 -117 0
3 50 0
-3 -50 0
3 73 0
-3 -73 0
3 27 0
-3 -27 0
87 58 0
-87 -58 0
87 50 0
-87 -50 0
96 37 0
-96 -37 0
96 81 0
-96 -81 0
96 97 0
-96 -97 0
94 83 0
-94 -83 0
94 84 0
-94 -84 0
94 39 0
-94 -39 0
15 72 0
-15 -72 0
15 28 0
-15 -28 0
115 36 0
-115 -36 0
115 53 0
-115 -53 0
115 120 0
-115 -120 0
9 101 0
-9 -101 0
9 30 0
-9 -30 0
9 28 0
-9 -28 0
71 118 0
-71 -118 0
71 70 0
-71 -70 0
22 23 0
-22 -23 0
22 26 0
-22 -26 0
22 101 0
-22 -101 0
137 6 0
-137 -6 0
137 72 0
-137 -72 0
137 34 0
-137 -34 0
40 95 0
-40 -95 0
40 26 0
-40 -26 0
62 117 0
-62 -117 0
62 124 0
-62 -124 0
62 121 0
-62 -121 0
92 112 0
-92 -112 0
92 72 0
-92 -72 0
92 113 0
-92 -113 0
77 93 0
-77 -93 0
77 8 0
-77 -8 0
77 41 0
-77 -41 0
69 53 0
-69 -53 0
69 48 0
-69 -48 0
69 109 0
-69 -109 0
88 74 0
-88 -74 0
88 37 0
-88 -37 0
60 113 0
-60 -113 0
60 104 0
-60 -104 0
60 95 0
-60 -95 0
33 49 0
-33 -49 0
33 67 0
-33 -67 0
102 41 0
-102 -41 0
102 113 0
-102 -113 0
102 122 0
-102 -122 0
13 76 0
-13 -76 0
13 85 0
-13 -85 0
13 140 0
-13 -140 0
127 26 0
-127 -26 0
127 37 0
-127 -37 0
127 111 0
-127 -111 0
106 56 0
-106 -56 0
106 49 0
-106 -49 0
123 30 0
-123 -30 0
123 58 0
-123 -58 0
123 97 0
-123 -97 0
86 75 0
-86 -75 0
86 43 0
-86 -43 0
86 104 0
-86 -104 0
125 81 0
-125 -81 0
125 139 0
-125 -139 0
128 31 0
-128 -31 0
128 23 0
-128 -23 0
128 118 0
-128 -118 0
91 63 0
-91 -63 0
91 50 0
-91 -50 0
91 112 0
-91 -112 0
98 121 0
-98 -121 0
98 110 0
-98 -110 0
98 32 0
-98 -32 0
38 48 0
-38 -48 0
38 74 0
-38 -74 0
38 117 0
-38 -117 0
24 135 0
-24 -135 0
24 34 0
-24 -34 0
24 108 0
-24 -108 0
54 14 0
-54 -14 0
54 89 0
-54 -89 0
42 89 0
-42 -89 0
42 25 0
-42 -25 0
42 76 0
-42 -76 0
16 111 0
-16 -111 0
16 63 0
-16 -63 0
16 46 0
-16 -46 0
29 100 0
-29 -100 0
29 56 0
-29 -56 0
29 27 0
-29 -27 0
136 124 0
-136 -124 0
136 129 0
-136 -129 0
136 116 0
-136 -116 0
11 110 0
-11 -110 0
11 10 0
-11 -10 0
11 43 0
-11 -43 0
79 36 0
-79 -36 0
120 124 0
-120 -124 0
85 117 0
-85 -117 0
127 120 0
-127 -120 0
103 100 0
-103 -100 0
106 132 0
-106 -132 0
107 85 0
-107 -85 0
87 129 0
-87 -129 0
114 92 0
-114 -92 0
57 22 0
-57 -22 0
68 72 0
-68 -72 0
13 36 0
-13 -36 0
74 81 0
-74 -81 0
3 120 0
-3 -120 0
125 75 0
-125 -75 0
127 103 0
-127 -103 0
123 48 0
-123 -48 0
7 102 0
-7 -102 0
7 20 0
-7 -20 0
34 67 0
-34 -67 0
12 81 0
-12 -81 0
139 50 0
-139 -50 0
37 23 0
-37 -23 0
28 104 0
-28 -104 0
12 56 0
-12 -56 0
92 11 0
-92 -11 0
27 14 0
-27 -14 0
3 135 0
-3 -135 0
57 60 0
-57 -60 0
5 102 0
-5 -102 0
35 113 0
-35 -113 0
88 33 0
-88 -33 0
90 56 0
-90 -56 0
7 66 0
-7 -66 0
98 43 0
-98 -43 0
13 90 0
-13 -90 0
13 109 0
-13 -109 0
98 139 0
-98 -139 0
50 6 0
-50 -6 0
20 17 0
-20 -17 0
33 31 0
-33 -31 0
26 48 0
-26 -48 0
44 124 0
-44 -124 0
94 85 0
-94 -85 0
3 9 0
-3 -9 0
102 50 0
-102 -50 0
12 104 0
-12 -104 0
10 36 0
-10 -36 0
102 86 0
-102 -86 0
99 125 0
-99 -125 0
95 100 0
-95 -100 0
13 74 0
-13 -74 0
105 73 0
-105 -73 0
6 100 0
-6 -100 0
125 101 0
-125 -101 0
126 37 0
-126 -37 0
64 56 0
-64 -56 0
72 30 0
-72 -30 0
122 117 0
-122 -117 0
18 92 0
-18 -92 0
35 77 0
-35 -77 0
112 48 0
-112 -48 0
105 108 0
-105 -108 0
138 91 0
-138 -91 0
96 130 0
-96 -130 0
60 89 0
-60 -89 0
106 14 0
-106 -14 0
115 74 0
-115 -74 0
126 117 0
-126 -117 0
9 66 0
-9 -66 0
13 27 0
-13 -27 0
38 14 0
-38 -14 0
5 53 0
-5 -53 0
68 85 0
-68 -85 0
127 46 0
-127 -46 0
126 33 0
-126 -33 0
130 121 0
-130 -121 0
78 66 0
-78 -66 0
78 30 0
-78 -30 0
59 10 0
-59 -10 0
132 74 0
-132 -74 0
80 29 0
-80 -29 0
129 31 0
-129 -31 0
123 14 0
-123 -14 0
5 41 0
-5 -41 0
117 93 0
-117 -93 0
109 139 0
-109 -139 0
22 66 0
-22 -66 0
69 110 0
-69 -110 0
127 85 0
-127 -85 0
20 136 0
-20 -136 0
43 101 0
-43 -101 0
34 41 0
-34 -41 0
35 70 0
-35 -70 0
47 31 0
-47 -31 0
51 79 0
-51 -79 0
20 117 0
-20 -117 0
18 31 0
-18 -31 0
108 117 0
-108 -117 0
80 4 0
-80 -4 0
7 28 0
-7 -28 0
58 14 0
-58 -14 0
128 63 0
-128 -63 0
19 130 0
-19 -130 0
140 93 0
-140 -93 0
4 101 0
-4 -101 0
47 86 0
-47 -86 0
120 65 0
-120 -65 0
23 113 0
-23 -113 0
44 54 0
-44 -54 0
115 90 0
-115 -90 0
13 116 0
-13 -116 0
105 5 0
-105 -5 0
9 125 0
-9 -125 0
132 103 0
-132 -103 0
105 123 0
-105 -123 0
21 121 0
-21 -121 0
85 104 0
-85 -104 0
80 69 0
-80 -69 0
46 76 0
-46 -76 0
131 38 0
-131 -38 0
4 40 0
-4 -40 0
68 123 0
-68 -123 0
21 33 0
-21 -33 0
106 29 0
-106 -29 0
70 101 0
-70 -101 0
107 71 0
-107 -71 0
5 39 0
-5 -39 0
88 8 0
-88 -8 0
87 56 0
-87 -56 0
7 38 0
-7 -38 0
35 4 0
-35 -4 0
35 120 0
-35 -120 0
22 30 0
-22 -30 0
3 33 0
-3 -33 0
102 67 0
-102 -67 0
71 97 0
-71 -97 0
21 113 0
-21 -113 0
78 34 0
-78 -34 0
15 139 0
-15 -139 0
129 95 0
-129 -95 0
120 113 0
-120 -113 0
128 112 0
-128 -112 0
7 43 0
-7 -43 0
127 16 0
-127 -16 0
44 28 0
-44 -28 0
88 102 0
-88 -102 0
90 74 0
-90 -74 0
136 48 0
-136 -48 0
103 117 0
-103 -117 0
4 27 0
-4 -27 0
51 9 0
-51 -9 0
22 10 0
-22 -10 0
65 100 0
-65 -100 0
35 36 0
-35 -36 0
84 112 0
-84 -112 0
15 23 0
-15 -23 0
45 31 0
-45 -31 0
39 109 0
-39 -109 0
13 75 0
-13 -75 0
72 113 0
-72 -113 0
83 124 0
-83 -124 0
94 74 0
-94 -74 0
2 89 0
-2 -89 0
131 137 0
-131 -137 0
2 61 0
-2 -61 0
18 55 0
-18 -55 0
71 106 0
-71 -106 0
7 67 0
-7 -67 0
138 70 0
-138 -70 0
12 112 0
-12 -112 0
123 6 0
-123 -6 0
5 25 0
-5 -25 0
107 37 0
-107 -37 0
51 93 0
-51 -93 0
87 103 0
-87 -103 0
95 56 0
-95 -56 0
54 26 0
-54 -26 0
77 89 0
-77 -89 0
87 71 0
-87 -71 0
116 101 0
-116 -101 0
137 91 0
-137 -91 0
35 23 0
-35 -23 0
82 32 0
-82 -32 0
64 49 0
-64 -49 0
61 27 0
-61 -27 0
35 13 0
-35 -13 0
62 89 0
-62 -89 0
17 87 0
-17 -87 0
140 27 0
-140 -27 0
137 74 0
-137 -74 0
103 58 0
-103 -58 0
101 49 0
-101 -49 0
55 13 0
-55 -13 0
20 63 0
-20 -63 0
71 36 0
-71 -36 0
129 8 0
-129 -8 0
125 108 0
-125 -108 0
8 89 0
-8 -89 0
105 113 0
-105 -113 0
16 109 0
-16 -109 0
63 89 0
-63 -89 0
114 26 0
-114 -26 0
103 122 0
-103 -122 0
107 95 0
-107 -95 0
40 128 0
-40 -128 0
22 113 0
-22 -113 0
18 60 0
-18 -60 0
20 41 0
-20 -41 0
88 39 0
-88 -39 0
79 98 0
-79 -98 0
18 76 0
-18 -76 0
69 102 0
-69 -102 0
109 101 0
-109 -101 0
37 14 0
-37 -14 0
54 130 0
-54 -130 0
13 106 0
-13 -106 0
35 89 0
-35 -89 0
68 134 0
-68 -134 0
20 46 0
-20 -46 0
2 133 0
-2 -133 0
83 23 0
-83 -23 0
84 23 0
-84 -23 0
4 116 0
-4 -116 0
51 76 0
-51 -76 0
105 44 0
-105 -44 0
77 100 0
-77 -100 0
107 83 0
-107 -83 0
26 135 0
-26 -135 0
83 6 0
-83 -6 0
73 50 0
-73 -50 0
77 117 0
-77 -117 0
119 10 0
-119 -10 0
78 121 0
-78 -121 0
70 124 0
-70 -124 0
87 67 0
-87 -67 0
105 94 0
-105 -94 0
129 111 0
-129 -111 0
138 6 0
-138 -6 0
59 124 0
-59 -124 0
49 30 0
-49 -30 0
105 2 0
-105 -2 0
71 81 0
-71 -81 0
129 108 0
-129 -108 0
42 67 0
-42 -67 0
21 127 0
-21 -127 0
118 23 0
-118 -23 0
139 90 0
-139 -90 0
69 58 0
-69 -58 0
78 65 0
-78 -65 0
25 27 0
-25 -27 0
54 63 0
-54 -63 0
86 58 0
-86 -58 0
16 49 0
-16 -49 0
25 28 0
-25 -28 0
25 75 0
-25 -75 0
128 90 0
-128 -90 0
119 30 0
-119 -30 0
53 76 0
-53 -76 0
104 50 0
-104 -50 0
92 97 0
-92 -97 0
42 73 0
-42 -73 0
5 12 0
-5 -12 0
97 12 0
-97 -12 0
59 72 0
-59 -72 0
17 122 0
-17 -122 0
18 128 0
-18 -128 0
87 136 0
-87 -136 0
7 113 0
-7 -113 0
7 80 0
-7 -80 0
140 26 0
-140 -26 0
70 112 0
-70 -112 0
126 116 0
-126 -116 0
22 73 0
-22 -73 0
71 22 0
-71 -22 0
128 32 0
-128 -32 0
71 117 0
-71 -117 0
44 58 0
-44 -58 0
16 23 0
-16 -23 0
80 35 0
-80 -35 0
51 103 0
-51 -103 0
140 23 0
-140 -23 0
33 76 0
-33 -76 0
95 93 0
-95 -93 0
52 83 0
-52 -83 0
45 13 0
-45 -13 0
40 106 0
-40 -106 0
117 49 0
-117 -49 0
4 13 0
-4 -13 0
43 110 0
-43 -110 0
51 24 0
-51 -24 0
107 100 0
-107 -100 0
94 15 0
-94 -15 0
94 108 0
-94 -108 0
99 47 0
-99 -47 0
85 121 0
-85 -121 0
138 117 0
-138 -117 0
18 21 0
-18 -21 0
54 133 0
-54 -133 0
92 101 0
-92 -101 0
32 37 0
-32 -37 0
42 130 0
-42 -130 0
86 121 0
-86 -121 0
98 29 0
-98 -29 0
36 95 0
-36 -95 0
18 122 0
-18 -122 0
73 27 0
-73 -27 0
12 46 0
-12 -46 0
107 96 0
-107 -96 0
49 75 0
-49 -75 0
94 117 0
-94 -117 0
27 63 0
-27 -63 0
119 63 0
-119 -63 0
51 5 0
-51 -5 0
104 124 0
-104 -124 0
127 116 0
-127 -116 0
105 99 0
-105 -99 0
129 112 0
-129 -112 0
10 93 0
-10 -93 0
44 60 0
-44 -60 0
108 53 0
-108 -53 0
19 75 0
-19 -75 0
99 121 0
-99 -121 0
116 122 0
-116 -122 0
83 113 0
-83 -113 0
33 103 0
-33 -103 0
51 52 0
-51 -52 0
139 81 0
-139 -81 0
5 42 0
-5 -42 0
108 90 0
-108 -90 0
72 48 0
-72 -48 0
47 136 0
-47 -136 0
7 83 0
-7 -83 0
106 76 0
-106 -76 0
55 67 0
-55 -67 0
65 116 0
-65 -116 0
107 50 0
-107 -50 0
69 8 0
-69 -8 0
127 100 0
-127 -100 0
93 14 0
-93 -14 0
88 123 0
-88 -123 0
61 50 0
-61 -50 0
96 108 0
-96 -108 0
137 56 0
-137 -56 0
131 94 0
-131 -94 0
114 73 0
-114 -73 0
60 85 0
-60 -85 0
131 78 0
-131 -78 0
47 91 0
-47 -91 0
20 116 0
-20 -116 0
97 32 0
-97 -32 0
34 66 0
-34 -66 0
45 134 0
-45 -134 0
52 103 0
-52 -103 0
20 57 0
-20 -57 0
85 58 0
-85 -58 0
128 109 0
-128 -109 0
52 57 0
-52 -57 0
107 82 0
-107 -82 0
34 63 0
-34 -63 0
5 68 0
-5 -68 0
105 85 0
-105 -85 0
80 83 0
-80 -83 0
40 91 0
-40 -91 0
2 119 0
-2 -119 0
45 139 0
-45 -139 0
80 57 0
-80 -57 0
138 28 0
-138 -28 0
9 54 0
-9 -54 0
136 63 0
-136 -63 0
26 31 0
-26 -31 0
19 11 0
-19 -11 0
45 67 0
-45 -67 0
65 118 0
-65 -118 0
52 82 0
-52 -82 0
96 124 0
-96 -124 0
44 127 0
-44 -127 0
60 46 0
-60 -46 0
63 124 0
-63 -124 0
59 49 0
-59 -49 0
69 128 0
-69 -128 0
138 89 0
-138 -89 0
2 106 0
-2 -106 0
94 73 0
-94 -73 0
78 54 0
-78 -54 0
42 26 0
-42 -26 0
5 135 0
-5 -135 0
96 30 0
-96 -30 0
134 139 0
-134 -139 0
105 68 0
-105 -68 0
124 110 0
-124 -110 0
107 68 0
-107 -68 0
55 139 0
-55 -139 0
11 67 0
-11 -67 0
120 37 0
-120 -37 0
17 69 0
-17 -69 0
132 65 0
-132 -65 0
5 84 0
-5 -84 0
38 43 0
-38 -43 0
51 128 0
-51 -128 0
85 110 0
-85 -110 0
98 65 0
-98 -65 0
72 124 0
-72 -124 0
24 73 0
-24 -73 0
64 14 0
-64 -14 0
22 137 0
-22 -137 0
71 28 0
-71 -28 0
104 36 0
-104 -36 0
65 48 0
-65 -48 0
52 11 0
-52 -11 0
45 66 0
-45 -66 0
92 41 0
-92 -41 0
105 129 0
-105 -129 0
21 27 0
-21 -27 0
1 14 0
-1 -14 0
83 26 0
-83 -26 0
24 28 0
-24 -28 0
68 43 0
-68 -43 0
6 121 0
-6 -121 0
108 63 0
-108 -63 0
47 129 0
-47 -129 0
69 117 0
-69 -117 0
102 11 0
-102 -11 0
73 37 0
-73 -37 0
99 130 0
-99 -130 0
1 99 0
-1 -99 0
33 132 0
-33 -132 0
34 76 0
-34 -76 0
99 128 0
-99 -128 0
67 49 0
-67 -49 0
94 121 0
-94 -121 0
70 27 0
-70 -27 0
126 115 0
-126 -115 0
23 31 0
-23 -31 0
61 136 0
-61 -136 0
25 89 0
-25 -89 0
66 63 0
-66 -63 0
133 111 0
-133 -111 0
107 69 0
-107 -69 0
2 66 0
-2 -66 0
64 113 0
-64 -113 0
